Results/Experiment 1 Results/New Benchmark/RES_20/output_p1_0.00_p2_0.00_n_20_18.txt
solutions: 72 nodes: 130  modelTime: 121  solveTime: 26  totalTime: 150  modelSize: 7358  readTime: 3 matchingSize: 10
