Results/Experiment 2 Results/New Benchmark/output_p1_0.00_p2_0.00_n_20_18.lp
clingo version 5.4.0
Reading from tempSRTISolver.lp ...
Solving...
Answer: 1
matched(7,2) matched(8,3) matched(1,4) matched(6,5) matched(5,6) matched(2,7) matched(3,8) matched(9,10) matched(12,11) matched(11,12) matched(10,9) matched(19,14) matched(18,15) matched(13,16) matched(20,17) matched(15,18) matched(14,19) matched(17,20) matched(16,13) matched(4,1)
Optimization: 104
Answer: 2
matched(7,2) matched(8,3) matched(1,4) matched(6,5) matched(5,6) matched(2,7) matched(3,8) matched(9,10) matched(12,11) matched(11,12) matched(10,9) matched(20,14) matched(18,15) matched(13,16) matched(19,17) matched(15,18) matched(17,19) matched(14,20) matched(16,13) matched(4,1)
Optimization: 103
Answer: 3
matched(8,2) matched(6,3) matched(1,4) matched(7,5) matched(3,6) matched(5,7) matched(2,8) matched(9,10) matched(12,11) matched(11,12) matched(10,9) matched(20,14) matched(18,15) matched(13,16) matched(19,17) matched(15,18) matched(17,19) matched(14,20) matched(16,13) matched(4,1)
Optimization: 102
OPTIMUM FOUND

Models       : 3
  Optimum    : yes
Optimization : 102
Calls        : 1
Time         : 0.107s (Solving: 0.01s 1st Model: 0.00s Unsat: 0.00s)
CPU Time     : 0.104s
